\ Model ../instances/darp_bc/a2-4.txt
\ LP format - for model browsing. Use MPS format to capture full model detail.
Minimize
  5.3 x[0,1,0] + 9.04 x[0,2,0] + 6.61 x[0,3,0] + 12.44 x[0,4,0]
   + 8.87 x[0,5,0] + 6.96 x[0,6,0] + 5.3 x[1,0,0] + 14.02 x[1,2,0]
   + 7.53 x[1,3,0] + 15.71 x[1,4,0] + 7.75 x[1,5,0] + 12.24 x[1,6,0]
   + 9.04 x[2,0,0] + 14.02 x[2,1,0] + 14.08 x[2,3,0] + 14.87 x[2,4,0]
   + 13.18 x[2,5,0] + 4.72 x[2,6,0] + 6.61 x[3,0,0] + 7.53 x[3,1,0]
   + 14.08 x[3,2,0] + 8.66 x[3,4,0] + 14.46 x[3,5,0] + 10.13 x[3,6,0]
   + 12.44 x[4,0,0] + 15.71 x[4,1,0] + 14.87 x[4,2,0] + 8.66 x[4,3,0]
   + 21.31 x[4,5,0] + 10.21 x[4,6,0] + 8.87 x[5,0,0] + 7.75 x[5,1,0]
   + 13.18 x[5,2,0] + 14.46 x[5,3,0] + 21.31 x[5,4,0] + 14.11 x[5,6,0]
   + 6.96 x[6,0,0] + 12.24 x[6,1,0] + 4.72 x[6,2,0] + 10.13 x[6,3,0]
   + 10.21 x[6,4,0] + 14.11 x[6,5,0] + 5.3 x[0,1,1] + 9.04 x[0,2,1]
   + 6.61 x[0,3,1] + 12.44 x[0,4,1] + 8.87 x[0,5,1] + 6.96 x[0,6,1]
   + 5.3 x[1,0,1] + 14.02 x[1,2,1] + 7.53 x[1,3,1] + 15.71 x[1,4,1]
   + 7.75 x[1,5,1] + 12.24 x[1,6,1] + 9.04 x[2,0,1] + 14.02 x[2,1,1]
   + 14.08 x[2,3,1] + 14.87 x[2,4,1] + 13.18 x[2,5,1] + 4.72 x[2,6,1]
   + 6.61 x[3,0,1] + 7.53 x[3,1,1] + 14.08 x[3,2,1] + 8.66 x[3,4,1]
   + 14.46 x[3,5,1] + 10.13 x[3,6,1] + 12.44 x[4,0,1] + 15.71 x[4,1,1]
   + 14.87 x[4,2,1] + 8.66 x[4,3,1] + 21.31 x[4,5,1] + 10.21 x[4,6,1]
   + 8.87 x[5,0,1] + 7.75 x[5,1,1] + 13.18 x[5,2,1] + 14.46 x[5,3,1]
   + 21.31 x[5,4,1] + 14.11 x[5,6,1] + 6.96 x[6,0,1] + 12.24 x[6,1,1]
   + 4.72 x[6,2,1] + 10.13 x[6,3,1] + 10.21 x[6,4,1] + 14.11 x[6,5,1]
   + 0 r[0,0] + 0 r[4,0] + 0 r[5,0] + 0 r[6,0] + 0 r[7,0] + 0 r[0,1]
   + 0 r[4,1] + 0 r[5,1] + 0 r[6,1] + 0 r[7,1]
Subject To
 R0: x[1,0,0] + x[1,1,0] + x[1,2,0] + x[1,3,0] + x[1,4,0] + x[1,5,0]
   + x[1,6,0] + x[1,7,0] + x[1,0,1] + x[1,1,1] + x[1,2,1] + x[1,3,1]
   + x[1,4,1] + x[1,5,1] + x[1,6,1] + x[1,7,1] = 1
 R1: x[2,0,0] + x[2,1,0] + x[2,2,0] + x[2,3,0] + x[2,4,0] + x[2,5,0]
   + x[2,6,0] + x[2,7,0] + x[2,0,1] + x[2,1,1] + x[2,2,1] + x[2,3,1]
   + x[2,4,1] + x[2,5,1] + x[2,6,1] + x[2,7,1] = 1
 R2: x[3,0,0] + x[3,1,0] + x[3,2,0] + x[3,3,0] + x[3,4,0] + x[3,5,0]
   + x[3,6,0] + x[3,7,0] + x[3,0,1] + x[3,1,1] + x[3,2,1] + x[3,3,1]
   + x[3,4,1] + x[3,5,1] + x[3,6,1] + x[3,7,1] = 1
 R3: x[0,0,0] + x[0,1,0] + x[0,2,0] + x[0,3,0] + x[0,4,0] + x[0,5,0]
   + x[0,6,0] + x[0,7,0] = 1
 R4: x[0,0,1] + x[0,1,1] + x[0,2,1] + x[0,3,1] + x[0,4,1] + x[0,5,1]
   + x[0,6,1] + x[0,7,1] = 1
 R5: x[0,7,0] + x[1,7,0] + x[2,7,0] + x[3,7,0] + x[4,7,0] + x[5,7,0]
   + x[6,7,0] + x[7,7,0] = 1
 R6: x[0,7,1] + x[1,7,1] + x[2,7,1] + x[3,7,1] + x[4,7,1] + x[5,7,1]
   + x[6,7,1] + x[7,7,1] = 1
 R7: x[1,0,0] + x[1,1,0] + x[1,2,0] + x[1,3,0] + x[1,4,0] + x[1,5,0]
   + x[1,6,0] + x[1,7,0] - x[4,0,0] - x[4,1,0] - x[4,2,0] - x[4,3,0]
   - x[4,4,0] - x[4,5,0] - x[4,6,0] - x[4,7,0] = 0
 R8: x[1,0,1] + x[1,1,1] + x[1,2,1] + x[1,3,1] + x[1,4,1] + x[1,5,1]
   + x[1,6,1] + x[1,7,1] - x[4,0,1] - x[4,1,1] - x[4,2,1] - x[4,3,1]
   - x[4,4,1] - x[4,5,1] - x[4,6,1] - x[4,7,1] = 0
 R9: x[2,0,0] + x[2,1,0] + x[2,2,0] + x[2,3,0] + x[2,4,0] + x[2,5,0]
   + x[2,6,0] + x[2,7,0] - x[5,0,0] - x[5,1,0] - x[5,2,0] - x[5,3,0]
   - x[5,4,0] - x[5,5,0] - x[5,6,0] - x[5,7,0] = 0
 R10: x[2,0,1] + x[2,1,1] + x[2,2,1] + x[2,3,1] + x[2,4,1] + x[2,5,1]
   + x[2,6,1] + x[2,7,1] - x[5,0,1] - x[5,1,1] - x[5,2,1] - x[5,3,1]
   - x[5,4,1] - x[5,5,1] - x[5,6,1] - x[5,7,1] = 0
 R11: x[3,0,0] + x[3,1,0] + x[3,2,0] + x[3,3,0] + x[3,4,0] + x[3,5,0]
   + x[3,6,0] + x[3,7,0] - x[6,0,0] - x[6,1,0] - x[6,2,0] - x[6,3,0]
   - x[6,4,0] - x[6,5,0] - x[6,6,0] - x[6,7,0] = 0
 R12: x[3,0,1] + x[3,1,1] + x[3,2,1] + x[3,3,1] + x[3,4,1] + x[3,5,1]
   + x[3,6,1] + x[3,7,1] - x[6,0,1] - x[6,1,1] - x[6,2,1] - x[6,3,1]
   - x[6,4,1] - x[6,5,1] - x[6,6,1] - x[6,7,1] = 0
 R13: x[0,1,0] - x[1,0,0] - x[1,2,0] - x[1,3,0] - x[1,4,0] - x[1,5,0]
   - x[1,6,0] - x[1,7,0] + x[2,1,0] + x[3,1,0] + x[4,1,0] + x[5,1,0]
   + x[6,1,0] + x[7,1,0] = 0
 R14: x[0,1,1] - x[1,0,1] - x[1,2,1] - x[1,3,1] - x[1,4,1] - x[1,5,1]
   - x[1,6,1] - x[1,7,1] + x[2,1,1] + x[3,1,1] + x[4,1,1] + x[5,1,1]
   + x[6,1,1] + x[7,1,1] = 0
 R15: x[0,2,0] + x[1,2,0] - x[2,0,0] - x[2,1,0] - x[2,3,0] - x[2,4,0]
   - x[2,5,0] - x[2,6,0] - x[2,7,0] + x[3,2,0] + x[4,2,0] + x[5,2,0]
   + x[6,2,0] + x[7,2,0] = 0
 R16: x[0,2,1] + x[1,2,1] - x[2,0,1] - x[2,1,1] - x[2,3,1] - x[2,4,1]
   - x[2,5,1] - x[2,6,1] - x[2,7,1] + x[3,2,1] + x[4,2,1] + x[5,2,1]
   + x[6,2,1] + x[7,2,1] = 0
 R17: x[0,3,0] + x[1,3,0] + x[2,3,0] - x[3,0,0] - x[3,1,0] - x[3,2,0]
   - x[3,4,0] - x[3,5,0] - x[3,6,0] - x[3,7,0] + x[4,3,0] + x[5,3,0]
   + x[6,3,0] + x[7,3,0] = 0
 R18: x[0,3,1] + x[1,3,1] + x[2,3,1] - x[3,0,1] - x[3,1,1] - x[3,2,1]
   - x[3,4,1] - x[3,5,1] - x[3,6,1] - x[3,7,1] + x[4,3,1] + x[5,3,1]
   + x[6,3,1] + x[7,3,1] = 0
 R19: x[0,4,0] + x[1,4,0] + x[2,4,0] + x[3,4,0] - x[4,0,0] - x[4,1,0]
   - x[4,2,0] - x[4,3,0] - x[4,5,0] - x[4,6,0] - x[4,7,0] + x[5,4,0]
   + x[6,4,0] + x[7,4,0] = 0
 R20: x[0,4,1] + x[1,4,1] + x[2,4,1] + x[3,4,1] - x[4,0,1] - x[4,1,1]
   - x[4,2,1] - x[4,3,1] - x[4,5,1] - x[4,6,1] - x[4,7,1] + x[5,4,1]
   + x[6,4,1] + x[7,4,1] = 0
 R21: x[0,5,0] + x[1,5,0] + x[2,5,0] + x[3,5,0] + x[4,5,0] - x[5,0,0]
   - x[5,1,0] - x[5,2,0] - x[5,3,0] - x[5,4,0] - x[5,6,0] - x[5,7,0]
   + x[6,5,0] + x[7,5,0] = 0
 R22: x[0,5,1] + x[1,5,1] + x[2,5,1] + x[3,5,1] + x[4,5,1] - x[5,0,1]
   - x[5,1,1] - x[5,2,1] - x[5,3,1] - x[5,4,1] - x[5,6,1] - x[5,7,1]
   + x[6,5,1] + x[7,5,1] = 0
 R23: x[0,6,0] + x[1,6,0] + x[2,6,0] + x[3,6,0] + x[4,6,0] + x[5,6,0]
   - x[6,0,0] - x[6,1,0] - x[6,2,0] - x[6,3,0] - x[6,4,0] - x[6,5,0]
   - x[6,7,0] + x[7,6,0] = 0
 R24: x[0,6,1] + x[1,6,1] + x[2,6,1] + x[3,6,1] + x[4,6,1] + x[5,6,1]
   - x[6,0,1] - x[6,1,1] - x[6,2,1] - x[6,3,1] - x[6,4,1] - x[6,5,1]
   - x[6,7,1] + x[7,6,1] = 0
 R25: u[1,0] - u[4,0] + r[1,0] = -3
 R26: u[1,1] - u[4,1] + r[1,1] = -3
 R27: u[2,0] - u[5,0] + r[2,0] = -3
 R28: u[2,1] - u[5,1] + r[2,1] = -3
 R29: u[3,0] - u[6,0] + r[3,0] = -3
 R30: u[3,1] - u[6,1] + r[3,1] = -3
 R31: - u[0,0] + u[7,0] <= 480
 R32: - u[0,1] + u[7,1] <= 480
 R33: u[0,0] >= 0
 R34: u[0,1] >= 0
 R35: u[1,0] >= 0
 R36: u[1,1] >= 0
 R37: u[2,0] >= 0
 R38: u[2,1] >= 0
 R39: u[3,0] >= 0
 R40: u[3,1] >= 0
 R41: u[4,0] >= 0
 R42: u[4,1] >= 0
 R43: u[5,0] >= 0
 R44: u[5,1] >= 0
 R45: u[6,0] >= 0
 R46: u[6,1] >= 0
 R47: u[7,0] >= 0
 R48: u[7,1] >= 0
 R49: u[0,0] <= 480
 R50: u[0,1] <= 480
 R51: u[1,0] <= 1440
 R52: u[1,1] <= 1440
 R53: u[2,0] <= 1440
 R54: u[2,1] <= 1440
 R55: u[3,0] <= 1440
 R56: u[3,1] <= 1440
 R57: u[4,0] <= 1440
 R58: u[4,1] <= 1440
 R59: u[5,0] <= 1440
 R60: u[5,1] <= 1440
 R61: u[6,0] <= 1440
 R62: u[6,1] <= 1440
 R63: u[7,0] <= 480
 R64: u[7,1] <= 480
 R65: r[1,0] >= 15.71
 R66: r[1,1] >= 15.71
 R67: r[2,0] >= 13.18
 R68: r[2,1] >= 13.18
 R69: r[3,0] >= 10.13
 R70: r[3,1] >= 10.13
 R71: r[1,0] <= 30
 R72: r[1,1] <= 30
 R73: r[2,0] <= 30
 R74: r[2,1] <= 30
 R75: r[3,0] <= 30
 R76: r[3,1] <= 30
 R77: w[0,0] >= 0
 R78: w[0,1] >= 0
 R79: w[1,0] >= 1
 R80: w[1,1] >= 1
 R81: w[2,0] >= 1
 R82: w[2,1] >= 1
 R83: w[3,0] >= 1
 R84: w[3,1] >= 1
 R85: w[4,0] >= 0
 R86: w[4,1] >= 0
 R87: w[5,0] >= 0
 R88: w[5,1] >= 0
 R89: w[6,0] >= 0
 R90: w[6,1] >= 0
 R91: w[7,0] >= 0
 R92: w[7,1] >= 0
 R93: w[0,0] <= 3
 R94: w[0,1] <= 3
 R95: w[1,0] <= 3
 R96: w[1,1] <= 3
 R97: w[2,0] <= 3
 R98: w[2,1] <= 3
 R99: w[3,0] <= 3
 R100: w[3,1] <= 3
 R101: w[4,0] <= 2
 R102: w[4,1] <= 2
 R103: w[5,0] <= 2
 R104: w[5,1] <= 2
 R105: w[6,0] <= 2
 R106: w[6,1] <= 2
 R107: w[7,0] <= 3
 R108: w[7,1] <= 3
 qc0: u[0,0] + [ - x[0,0,0] * u[0,0] ] >= 0
 qc1: u[0,1] + [ - x[0,0,1] * u[0,1] ] >= 0
 qc2: - 5.3 x[0,1,0] + u[1,0] + [ - x[0,1,0] * u[0,0] ] >= 0
 qc3: - 5.3 x[0,1,1] + u[1,1] + [ - x[0,1,1] * u[0,1] ] >= 0
 qc4: - 9.04 x[0,2,0] + u[2,0] + [ - x[0,2,0] * u[0,0] ] >= 0
 qc5: - 9.04 x[0,2,1] + u[2,1] + [ - x[0,2,1] * u[0,1] ] >= 0
 qc6: - 6.61 x[0,3,0] + u[3,0] + [ - x[0,3,0] * u[0,0] ] >= 0
 qc7: - 6.61 x[0,3,1] + u[3,1] + [ - x[0,3,1] * u[0,1] ] >= 0
 qc8: - 12.44 x[0,4,0] + u[4,0] + [ - x[0,4,0] * u[0,0] ] >= 0
 qc9: - 12.44 x[0,4,1] + u[4,1] + [ - x[0,4,1] * u[0,1] ] >= 0
 qc10: - 8.87 x[0,5,0] + u[5,0] + [ - x[0,5,0] * u[0,0] ] >= 0
 qc11: - 8.87 x[0,5,1] + u[5,1] + [ - x[0,5,1] * u[0,1] ] >= 0
 qc12: - 6.96 x[0,6,0] + u[6,0] + [ - x[0,6,0] * u[0,0] ] >= 0
 qc13: - 6.96 x[0,6,1] + u[6,1] + [ - x[0,6,1] * u[0,1] ] >= 0
 qc14: u[7,0] + [ - x[0,7,0] * u[0,0] ] >= 0
 qc15: u[7,1] + [ - x[0,7,1] * u[0,1] ] >= 0
 qc16: - 8.3 x[1,0,0] + u[0,0] + [ - x[1,0,0] * u[1,0] ] >= 0
 qc17: - 8.3 x[1,0,1] + u[0,1] + [ - x[1,0,1] * u[1,1] ] >= 0
 qc18: - 3 x[1,1,0] + u[1,0] + [ - x[1,1,0] * u[1,0] ] >= 0
 qc19: - 3 x[1,1,1] + u[1,1] + [ - x[1,1,1] * u[1,1] ] >= 0
 qc20: - 17.02 x[1,2,0] + u[2,0] + [ - x[1,2,0] * u[1,0] ] >= 0
 qc21: - 17.02 x[1,2,1] + u[2,1] + [ - x[1,2,1] * u[1,1] ] >= 0
 qc22: - 10.53 x[1,3,0] + u[3,0] + [ - x[1,3,0] * u[1,0] ] >= 0
 qc23: - 10.53 x[1,3,1] + u[3,1] + [ - x[1,3,1] * u[1,1] ] >= 0
 qc24: - 18.71 x[1,4,0] + u[4,0] + [ - x[1,4,0] * u[1,0] ] >= 0
 qc25: - 18.71 x[1,4,1] + u[4,1] + [ - x[1,4,1] * u[1,1] ] >= 0
 qc26: - 10.75 x[1,5,0] + u[5,0] + [ - x[1,5,0] * u[1,0] ] >= 0
 qc27: - 10.75 x[1,5,1] + u[5,1] + [ - x[1,5,1] * u[1,1] ] >= 0
 qc28: - 15.24 x[1,6,0] + u[6,0] + [ - x[1,6,0] * u[1,0] ] >= 0
 qc29: - 15.24 x[1,6,1] + u[6,1] + [ - x[1,6,1] * u[1,1] ] >= 0
 qc30: - 3 x[1,7,0] + u[7,0] + [ - x[1,7,0] * u[1,0] ] >= 0
 qc31: - 3 x[1,7,1] + u[7,1] + [ - x[1,7,1] * u[1,1] ] >= 0
 qc32: - 12.04 x[2,0,0] + u[0,0] + [ - x[2,0,0] * u[2,0] ] >= 0
 qc33: - 12.04 x[2,0,1] + u[0,1] + [ - x[2,0,1] * u[2,1] ] >= 0
 qc34: - 17.02 x[2,1,0] + u[1,0] + [ - x[2,1,0] * u[2,0] ] >= 0
 qc35: - 17.02 x[2,1,1] + u[1,1] + [ - x[2,1,1] * u[2,1] ] >= 0
 qc36: - 3 x[2,2,0] + u[2,0] + [ - x[2,2,0] * u[2,0] ] >= 0
 qc37: - 3 x[2,2,1] + u[2,1] + [ - x[2,2,1] * u[2,1] ] >= 0
 qc38: - 17.08 x[2,3,0] + u[3,0] + [ - x[2,3,0] * u[2,0] ] >= 0
 qc39: - 17.08 x[2,3,1] + u[3,1] + [ - x[2,3,1] * u[2,1] ] >= 0
 qc40: - 17.87 x[2,4,0] + u[4,0] + [ - x[2,4,0] * u[2,0] ] >= 0
 qc41: - 17.87 x[2,4,1] + u[4,1] + [ - x[2,4,1] * u[2,1] ] >= 0
 qc42: - 16.18 x[2,5,0] + u[5,0] + [ - x[2,5,0] * u[2,0] ] >= 0
 qc43: - 16.18 x[2,5,1] + u[5,1] + [ - x[2,5,1] * u[2,1] ] >= 0
 qc44: - 7.72 x[2,6,0] + u[6,0] + [ - x[2,6,0] * u[2,0] ] >= 0
 qc45: - 7.72 x[2,6,1] + u[6,1] + [ - x[2,6,1] * u[2,1] ] >= 0
 qc46: - 3 x[2,7,0] + u[7,0] + [ - x[2,7,0] * u[2,0] ] >= 0
 qc47: - 3 x[2,7,1] + u[7,1] + [ - x[2,7,1] * u[2,1] ] >= 0
 qc48: - 9.61 x[3,0,0] + u[0,0] + [ - x[3,0,0] * u[3,0] ] >= 0
 qc49: - 9.61 x[3,0,1] + u[0,1] + [ - x[3,0,1] * u[3,1] ] >= 0
 qc50: - 10.53 x[3,1,0] + u[1,0] + [ - x[3,1,0] * u[3,0] ] >= 0
 qc51: - 10.53 x[3,1,1] + u[1,1] + [ - x[3,1,1] * u[3,1] ] >= 0
 qc52: - 17.08 x[3,2,0] + u[2,0] + [ - x[3,2,0] * u[3,0] ] >= 0
 qc53: - 17.08 x[3,2,1] + u[2,1] + [ - x[3,2,1] * u[3,1] ] >= 0
 qc54: - 3 x[3,3,0] + u[3,0] + [ - x[3,3,0] * u[3,0] ] >= 0
 qc55: - 3 x[3,3,1] + u[3,1] + [ - x[3,3,1] * u[3,1] ] >= 0
 qc56: - 11.66 x[3,4,0] + u[4,0] + [ - x[3,4,0] * u[3,0] ] >= 0
 qc57: - 11.66 x[3,4,1] + u[4,1] + [ - x[3,4,1] * u[3,1] ] >= 0
 qc58: - 17.46 x[3,5,0] + u[5,0] + [ - x[3,5,0] * u[3,0] ] >= 0
 qc59: - 17.46 x[3,5,1] + u[5,1] + [ - x[3,5,1] * u[3,1] ] >= 0
 qc60: - 13.13 x[3,6,0] + u[6,0] + [ - x[3,6,0] * u[3,0] ] >= 0
 qc61: - 13.13 x[3,6,1] + u[6,1] + [ - x[3,6,1] * u[3,1] ] >= 0
 qc62: - 3 x[3,7,0] + u[7,0] + [ - x[3,7,0] * u[3,0] ] >= 0
 qc63: - 3 x[3,7,1] + u[7,1] + [ - x[3,7,1] * u[3,1] ] >= 0
 qc64: - 15.44 x[4,0,0] + u[0,0] + [ - x[4,0,0] * u[4,0] ] >= 0
 qc65: - 15.44 x[4,0,1] + u[0,1] + [ - x[4,0,1] * u[4,1] ] >= 0
 qc66: - 18.71 x[4,1,0] + u[1,0] + [ - x[4,1,0] * u[4,0] ] >= 0
 qc67: - 18.71 x[4,1,1] + u[1,1] + [ - x[4,1,1] * u[4,1] ] >= 0
 qc68: - 17.87 x[4,2,0] + u[2,0] + [ - x[4,2,0] * u[4,0] ] >= 0
 qc69: - 17.87 x[4,2,1] + u[2,1] + [ - x[4,2,1] * u[4,1] ] >= 0
 qc70: - 11.66 x[4,3,0] + u[3,0] + [ - x[4,3,0] * u[4,0] ] >= 0
 qc71: - 11.66 x[4,3,1] + u[3,1] + [ - x[4,3,1] * u[4,1] ] >= 0
 qc72: - 3 x[4,4,0] + u[4,0] + [ - x[4,4,0] * u[4,0] ] >= 0
 qc73: - 3 x[4,4,1] + u[4,1] + [ - x[4,4,1] * u[4,1] ] >= 0
 qc74: - 24.31 x[4,5,0] + u[5,0] + [ - x[4,5,0] * u[4,0] ] >= 0
 qc75: - 24.31 x[4,5,1] + u[5,1] + [ - x[4,5,1] * u[4,1] ] >= 0
 qc76: - 13.21 x[4,6,0] + u[6,0] + [ - x[4,6,0] * u[4,0] ] >= 0
 qc77: - 13.21 x[4,6,1] + u[6,1] + [ - x[4,6,1] * u[4,1] ] >= 0
 qc78: - 3 x[4,7,0] + u[7,0] + [ - x[4,7,0] * u[4,0] ] >= 0
 qc79: - 3 x[4,7,1] + u[7,1] + [ - x[4,7,1] * u[4,1] ] >= 0
 qc80: - 11.87 x[5,0,0] + u[0,0] + [ - x[5,0,0] * u[5,0] ] >= 0
 qc81: - 11.87 x[5,0,1] + u[0,1] + [ - x[5,0,1] * u[5,1] ] >= 0
 qc82: - 10.75 x[5,1,0] + u[1,0] + [ - x[5,1,0] * u[5,0] ] >= 0
 qc83: - 10.75 x[5,1,1] + u[1,1] + [ - x[5,1,1] * u[5,1] ] >= 0
 qc84: - 16.18 x[5,2,0] + u[2,0] + [ - x[5,2,0] * u[5,0] ] >= 0
 qc85: - 16.18 x[5,2,1] + u[2,1] + [ - x[5,2,1] * u[5,1] ] >= 0
 qc86: - 17.46 x[5,3,0] + u[3,0] + [ - x[5,3,0] * u[5,0] ] >= 0
 qc87: - 17.46 x[5,3,1] + u[3,1] + [ - x[5,3,1] * u[5,1] ] >= 0
 qc88: - 24.31 x[5,4,0] + u[4,0] + [ - x[5,4,0] * u[5,0] ] >= 0
 qc89: - 24.31 x[5,4,1] + u[4,1] + [ - x[5,4,1] * u[5,1] ] >= 0
 qc90: - 3 x[5,5,0] + u[5,0] + [ - x[5,5,0] * u[5,0] ] >= 0
 qc91: - 3 x[5,5,1] + u[5,1] + [ - x[5,5,1] * u[5,1] ] >= 0
 qc92: - 17.11 x[5,6,0] + u[6,0] + [ - x[5,6,0] * u[5,0] ] >= 0
 qc93: - 17.11 x[5,6,1] + u[6,1] + [ - x[5,6,1] * u[5,1] ] >= 0
 qc94: - 3 x[5,7,0] + u[7,0] + [ - x[5,7,0] * u[5,0] ] >= 0
 qc95: - 3 x[5,7,1] + u[7,1] + [ - x[5,7,1] * u[5,1] ] >= 0
 qc96: - 9.96 x[6,0,0] + u[0,0] + [ - x[6,0,0] * u[6,0] ] >= 0
 qc97: - 9.96 x[6,0,1] + u[0,1] + [ - x[6,0,1] * u[6,1] ] >= 0
 qc98: - 15.24 x[6,1,0] + u[1,0] + [ - x[6,1,0] * u[6,0] ] >= 0
 qc99: - 15.24 x[6,1,1] + u[1,1] + [ - x[6,1,1] * u[6,1] ] >= 0
 qc100: - 7.72 x[6,2,0] + u[2,0] + [ - x[6,2,0] * u[6,0] ] >= 0
 qc101: - 7.72 x[6,2,1] + u[2,1] + [ - x[6,2,1] * u[6,1] ] >= 0
 qc102: - 13.13 x[6,3,0] + u[3,0] + [ - x[6,3,0] * u[6,0] ] >= 0
 qc103: - 13.13 x[6,3,1] + u[3,1] + [ - x[6,3,1] * u[6,1] ] >= 0
 qc104: - 13.21 x[6,4,0] + u[4,0] + [ - x[6,4,0] * u[6,0] ] >= 0
 qc105: - 13.21 x[6,4,1] + u[4,1] + [ - x[6,4,1] * u[6,1] ] >= 0
 qc106: - 17.11 x[6,5,0] + u[5,0] + [ - x[6,5,0] * u[6,0] ] >= 0
 qc107: - 17.11 x[6,5,1] + u[5,1] + [ - x[6,5,1] * u[6,1] ] >= 0
 qc108: - 3 x[6,6,0] + u[6,0] + [ - x[6,6,0] * u[6,0] ] >= 0
 qc109: - 3 x[6,6,1] + u[6,1] + [ - x[6,6,1] * u[6,1] ] >= 0
 qc110: - 3 x[6,7,0] + u[7,0] + [ - x[6,7,0] * u[6,0] ] >= 0
 qc111: - 3 x[6,7,1] + u[7,1] + [ - x[6,7,1] * u[6,1] ] >= 0
 qc112: u[0,0] + [ - x[7,0,0] * u[7,0] ] >= 0
 qc113: u[0,1] + [ - x[7,0,1] * u[7,1] ] >= 0
 qc114: u[1,0] + [ - x[7,1,0] * u[7,0] ] >= 0
 qc115: u[1,1] + [ - x[7,1,1] * u[7,1] ] >= 0
 qc116: u[2,0] + [ - x[7,2,0] * u[7,0] ] >= 0
 qc117: u[2,1] + [ - x[7,2,1] * u[7,1] ] >= 0
 qc118: u[3,0] + [ - x[7,3,0] * u[7,0] ] >= 0
 qc119: u[3,1] + [ - x[7,3,1] * u[7,1] ] >= 0
 qc120: u[4,0] + [ - x[7,4,0] * u[7,0] ] >= 0
 qc121: u[4,1] + [ - x[7,4,1] * u[7,1] ] >= 0
 qc122: u[5,0] + [ - x[7,5,0] * u[7,0] ] >= 0
 qc123: u[5,1] + [ - x[7,5,1] * u[7,1] ] >= 0
 qc124: u[6,0] + [ - x[7,6,0] * u[7,0] ] >= 0
 qc125: u[6,1] + [ - x[7,6,1] * u[7,1] ] >= 0
 qc126: u[7,0] + [ - x[7,7,0] * u[7,0] ] >= 0
 qc127: u[7,1] + [ - x[7,7,1] * u[7,1] ] >= 0
 qc128: w[0,0] + [ - x[0,0,0] * w[0,0] ] >= 0
 qc129: w[0,1] + [ - x[0,0,1] * w[0,1] ] >= 0
 qc130: - x[0,1,0] + w[1,0] + [ - x[0,1,0] * w[0,0] ] >= 0
 qc131: - x[0,1,1] + w[1,1] + [ - x[0,1,1] * w[0,1] ] >= 0
 qc132: - x[0,2,0] + w[2,0] + [ - x[0,2,0] * w[0,0] ] >= 0
 qc133: - x[0,2,1] + w[2,1] + [ - x[0,2,1] * w[0,1] ] >= 0
 qc134: - x[0,3,0] + w[3,0] + [ - x[0,3,0] * w[0,0] ] >= 0
 qc135: - x[0,3,1] + w[3,1] + [ - x[0,3,1] * w[0,1] ] >= 0
 qc136: x[0,4,0] + w[4,0] + [ - x[0,4,0] * w[0,0] ] >= 0
 qc137: x[0,4,1] + w[4,1] + [ - x[0,4,1] * w[0,1] ] >= 0
 qc138: x[0,5,0] + w[5,0] + [ - x[0,5,0] * w[0,0] ] >= 0
 qc139: x[0,5,1] + w[5,1] + [ - x[0,5,1] * w[0,1] ] >= 0
 qc140: x[0,6,0] + w[6,0] + [ - x[0,6,0] * w[0,0] ] >= 0
 qc141: x[0,6,1] + w[6,1] + [ - x[0,6,1] * w[0,1] ] >= 0
 qc142: w[7,0] + [ - x[0,7,0] * w[0,0] ] >= 0
 qc143: w[7,1] + [ - x[0,7,1] * w[0,1] ] >= 0
 qc144: w[0,0] + [ - x[1,0,0] * w[1,0] ] >= 0
 qc145: w[0,1] + [ - x[1,0,1] * w[1,1] ] >= 0
 qc146: - x[1,1,0] + w[1,0] + [ - x[1,1,0] * w[1,0] ] >= 0
 qc147: - x[1,1,1] + w[1,1] + [ - x[1,1,1] * w[1,1] ] >= 0
 qc148: - x[1,2,0] + w[2,0] + [ - x[1,2,0] * w[1,0] ] >= 0
 qc149: - x[1,2,1] + w[2,1] + [ - x[1,2,1] * w[1,1] ] >= 0
 qc150: - x[1,3,0] + w[3,0] + [ - x[1,3,0] * w[1,0] ] >= 0
 qc151: - x[1,3,1] + w[3,1] + [ - x[1,3,1] * w[1,1] ] >= 0
 qc152: x[1,4,0] + w[4,0] + [ - x[1,4,0] * w[1,0] ] >= 0
 qc153: x[1,4,1] + w[4,1] + [ - x[1,4,1] * w[1,1] ] >= 0
 qc154: x[1,5,0] + w[5,0] + [ - x[1,5,0] * w[1,0] ] >= 0
 qc155: x[1,5,1] + w[5,1] + [ - x[1,5,1] * w[1,1] ] >= 0
 qc156: x[1,6,0] + w[6,0] + [ - x[1,6,0] * w[1,0] ] >= 0
 qc157: x[1,6,1] + w[6,1] + [ - x[1,6,1] * w[1,1] ] >= 0
 qc158: w[7,0] + [ - x[1,7,0] * w[1,0] ] >= 0
 qc159: w[7,1] + [ - x[1,7,1] * w[1,1] ] >= 0
 qc160: w[0,0] + [ - x[2,0,0] * w[2,0] ] >= 0
 qc161: w[0,1] + [ - x[2,0,1] * w[2,1] ] >= 0
 qc162: - x[2,1,0] + w[1,0] + [ - x[2,1,0] * w[2,0] ] >= 0
 qc163: - x[2,1,1] + w[1,1] + [ - x[2,1,1] * w[2,1] ] >= 0
 qc164: - x[2,2,0] + w[2,0] + [ - x[2,2,0] * w[2,0] ] >= 0
 qc165: - x[2,2,1] + w[2,1] + [ - x[2,2,1] * w[2,1] ] >= 0
 qc166: - x[2,3,0] + w[3,0] + [ - x[2,3,0] * w[2,0] ] >= 0
 qc167: - x[2,3,1] + w[3,1] + [ - x[2,3,1] * w[2,1] ] >= 0
 qc168: x[2,4,0] + w[4,0] + [ - x[2,4,0] * w[2,0] ] >= 0
 qc169: x[2,4,1] + w[4,1] + [ - x[2,4,1] * w[2,1] ] >= 0
 qc170: x[2,5,0] + w[5,0] + [ - x[2,5,0] * w[2,0] ] >= 0
 qc171: x[2,5,1] + w[5,1] + [ - x[2,5,1] * w[2,1] ] >= 0
 qc172: x[2,6,0] + w[6,0] + [ - x[2,6,0] * w[2,0] ] >= 0
 qc173: x[2,6,1] + w[6,1] + [ - x[2,6,1] * w[2,1] ] >= 0
 qc174: w[7,0] + [ - x[2,7,0] * w[2,0] ] >= 0
 qc175: w[7,1] + [ - x[2,7,1] * w[2,1] ] >= 0
 qc176: w[0,0] + [ - x[3,0,0] * w[3,0] ] >= 0
 qc177: w[0,1] + [ - x[3,0,1] * w[3,1] ] >= 0
 qc178: - x[3,1,0] + w[1,0] + [ - x[3,1,0] * w[3,0] ] >= 0
 qc179: - x[3,1,1] + w[1,1] + [ - x[3,1,1] * w[3,1] ] >= 0
 qc180: - x[3,2,0] + w[2,0] + [ - x[3,2,0] * w[3,0] ] >= 0
 qc181: - x[3,2,1] + w[2,1] + [ - x[3,2,1] * w[3,1] ] >= 0
 qc182: - x[3,3,0] + w[3,0] + [ - x[3,3,0] * w[3,0] ] >= 0
 qc183: - x[3,3,1] + w[3,1] + [ - x[3,3,1] * w[3,1] ] >= 0
 qc184: x[3,4,0] + w[4,0] + [ - x[3,4,0] * w[3,0] ] >= 0
 qc185: x[3,4,1] + w[4,1] + [ - x[3,4,1] * w[3,1] ] >= 0
 qc186: x[3,5,0] + w[5,0] + [ - x[3,5,0] * w[3,0] ] >= 0
 qc187: x[3,5,1] + w[5,1] + [ - x[3,5,1] * w[3,1] ] >= 0
 qc188: x[3,6,0] + w[6,0] + [ - x[3,6,0] * w[3,0] ] >= 0
 qc189: x[3,6,1] + w[6,1] + [ - x[3,6,1] * w[3,1] ] >= 0
 qc190: w[7,0] + [ - x[3,7,0] * w[3,0] ] >= 0
 qc191: w[7,1] + [ - x[3,7,1] * w[3,1] ] >= 0
 qc192: w[0,0] + [ - x[4,0,0] * w[4,0] ] >= 0
 qc193: w[0,1] + [ - x[4,0,1] * w[4,1] ] >= 0
 qc194: - x[4,1,0] + w[1,0] + [ - x[4,1,0] * w[4,0] ] >= 0
 qc195: - x[4,1,1] + w[1,1] + [ - x[4,1,1] * w[4,1] ] >= 0
 qc196: - x[4,2,0] + w[2,0] + [ - x[4,2,0] * w[4,0] ] >= 0
 qc197: - x[4,2,1] + w[2,1] + [ - x[4,2,1] * w[4,1] ] >= 0
 qc198: - x[4,3,0] + w[3,0] + [ - x[4,3,0] * w[4,0] ] >= 0
 qc199: - x[4,3,1] + w[3,1] + [ - x[4,3,1] * w[4,1] ] >= 0
 qc200: x[4,4,0] + w[4,0] + [ - x[4,4,0] * w[4,0] ] >= 0
 qc201: x[4,4,1] + w[4,1] + [ - x[4,4,1] * w[4,1] ] >= 0
 qc202: x[4,5,0] + w[5,0] + [ - x[4,5,0] * w[4,0] ] >= 0
 qc203: x[4,5,1] + w[5,1] + [ - x[4,5,1] * w[4,1] ] >= 0
 qc204: x[4,6,0] + w[6,0] + [ - x[4,6,0] * w[4,0] ] >= 0
 qc205: x[4,6,1] + w[6,1] + [ - x[4,6,1] * w[4,1] ] >= 0
 qc206: w[7,0] + [ - x[4,7,0] * w[4,0] ] >= 0
 qc207: w[7,1] + [ - x[4,7,1] * w[4,1] ] >= 0
 qc208: w[0,0] + [ - x[5,0,0] * w[5,0] ] >= 0
 qc209: w[0,1] + [ - x[5,0,1] * w[5,1] ] >= 0
 qc210: - x[5,1,0] + w[1,0] + [ - x[5,1,0] * w[5,0] ] >= 0
 qc211: - x[5,1,1] + w[1,1] + [ - x[5,1,1] * w[5,1] ] >= 0
 qc212: - x[5,2,0] + w[2,0] + [ - x[5,2,0] * w[5,0] ] >= 0
 qc213: - x[5,2,1] + w[2,1] + [ - x[5,2,1] * w[5,1] ] >= 0
 qc214: - x[5,3,0] + w[3,0] + [ - x[5,3,0] * w[5,0] ] >= 0
 qc215: - x[5,3,1] + w[3,1] + [ - x[5,3,1] * w[5,1] ] >= 0
 qc216: x[5,4,0] + w[4,0] + [ - x[5,4,0] * w[5,0] ] >= 0
 qc217: x[5,4,1] + w[4,1] + [ - x[5,4,1] * w[5,1] ] >= 0
 qc218: x[5,5,0] + w[5,0] + [ - x[5,5,0] * w[5,0] ] >= 0
 qc219: x[5,5,1] + w[5,1] + [ - x[5,5,1] * w[5,1] ] >= 0
 qc220: x[5,6,0] + w[6,0] + [ - x[5,6,0] * w[5,0] ] >= 0
 qc221: x[5,6,1] + w[6,1] + [ - x[5,6,1] * w[5,1] ] >= 0
 qc222: w[7,0] + [ - x[5,7,0] * w[5,0] ] >= 0
 qc223: w[7,1] + [ - x[5,7,1] * w[5,1] ] >= 0
 qc224: w[0,0] + [ - x[6,0,0] * w[6,0] ] >= 0
 qc225: w[0,1] + [ - x[6,0,1] * w[6,1] ] >= 0
 qc226: - x[6,1,0] + w[1,0] + [ - x[6,1,0] * w[6,0] ] >= 0
 qc227: - x[6,1,1] + w[1,1] + [ - x[6,1,1] * w[6,1] ] >= 0
 qc228: - x[6,2,0] + w[2,0] + [ - x[6,2,0] * w[6,0] ] >= 0
 qc229: - x[6,2,1] + w[2,1] + [ - x[6,2,1] * w[6,1] ] >= 0
 qc230: - x[6,3,0] + w[3,0] + [ - x[6,3,0] * w[6,0] ] >= 0
 qc231: - x[6,3,1] + w[3,1] + [ - x[6,3,1] * w[6,1] ] >= 0
 qc232: x[6,4,0] + w[4,0] + [ - x[6,4,0] * w[6,0] ] >= 0
 qc233: x[6,4,1] + w[4,1] + [ - x[6,4,1] * w[6,1] ] >= 0
 qc234: x[6,5,0] + w[5,0] + [ - x[6,5,0] * w[6,0] ] >= 0
 qc235: x[6,5,1] + w[5,1] + [ - x[6,5,1] * w[6,1] ] >= 0
 qc236: x[6,6,0] + w[6,0] + [ - x[6,6,0] * w[6,0] ] >= 0
 qc237: x[6,6,1] + w[6,1] + [ - x[6,6,1] * w[6,1] ] >= 0
 qc238: w[7,0] + [ - x[6,7,0] * w[6,0] ] >= 0
 qc239: w[7,1] + [ - x[6,7,1] * w[6,1] ] >= 0
 qc240: w[0,0] + [ - x[7,0,0] * w[7,0] ] >= 0
 qc241: w[0,1] + [ - x[7,0,1] * w[7,1] ] >= 0
 qc242: - x[7,1,0] + w[1,0] + [ - x[7,1,0] * w[7,0] ] >= 0
 qc243: - x[7,1,1] + w[1,1] + [ - x[7,1,1] * w[7,1] ] >= 0
 qc244: - x[7,2,0] + w[2,0] + [ - x[7,2,0] * w[7,0] ] >= 0
 qc245: - x[7,2,1] + w[2,1] + [ - x[7,2,1] * w[7,1] ] >= 0
 qc246: - x[7,3,0] + w[3,0] + [ - x[7,3,0] * w[7,0] ] >= 0
 qc247: - x[7,3,1] + w[3,1] + [ - x[7,3,1] * w[7,1] ] >= 0
 qc248: x[7,4,0] + w[4,0] + [ - x[7,4,0] * w[7,0] ] >= 0
 qc249: x[7,4,1] + w[4,1] + [ - x[7,4,1] * w[7,1] ] >= 0
 qc250: x[7,5,0] + w[5,0] + [ - x[7,5,0] * w[7,0] ] >= 0
 qc251: x[7,5,1] + w[5,1] + [ - x[7,5,1] * w[7,1] ] >= 0
 qc252: x[7,6,0] + w[6,0] + [ - x[7,6,0] * w[7,0] ] >= 0
 qc253: x[7,6,1] + w[6,1] + [ - x[7,6,1] * w[7,1] ] >= 0
 qc254: w[7,0] + [ - x[7,7,0] * w[7,0] ] >= 0
 qc255: w[7,1] + [ - x[7,7,1] * w[7,1] ] >= 0
Bounds
Binaries
 x[0,0,0] x[0,1,0] x[0,2,0] x[0,3,0] x[0,4,0] x[0,5,0] x[0,6,0] x[0,7,0]
 x[1,0,0] x[1,1,0] x[1,2,0] x[1,3,0] x[1,4,0] x[1,5,0] x[1,6,0] x[1,7,0]
 x[2,0,0] x[2,1,0] x[2,2,0] x[2,3,0] x[2,4,0] x[2,5,0] x[2,6,0] x[2,7,0]
 x[3,0,0] x[3,1,0] x[3,2,0] x[3,3,0] x[3,4,0] x[3,5,0] x[3,6,0] x[3,7,0]
 x[4,0,0] x[4,1,0] x[4,2,0] x[4,3,0] x[4,4,0] x[4,5,0] x[4,6,0] x[4,7,0]
 x[5,0,0] x[5,1,0] x[5,2,0] x[5,3,0] x[5,4,0] x[5,5,0] x[5,6,0] x[5,7,0]
 x[6,0,0] x[6,1,0] x[6,2,0] x[6,3,0] x[6,4,0] x[6,5,0] x[6,6,0] x[6,7,0]
 x[7,0,0] x[7,1,0] x[7,2,0] x[7,3,0] x[7,4,0] x[7,5,0] x[7,6,0] x[7,7,0]
 x[0,0,1] x[0,1,1] x[0,2,1] x[0,3,1] x[0,4,1] x[0,5,1] x[0,6,1] x[0,7,1]
 x[1,0,1] x[1,1,1] x[1,2,1] x[1,3,1] x[1,4,1] x[1,5,1] x[1,6,1] x[1,7,1]
 x[2,0,1] x[2,1,1] x[2,2,1] x[2,3,1] x[2,4,1] x[2,5,1] x[2,6,1] x[2,7,1]
 x[3,0,1] x[3,1,1] x[3,2,1] x[3,3,1] x[3,4,1] x[3,5,1] x[3,6,1] x[3,7,1]
 x[4,0,1] x[4,1,1] x[4,2,1] x[4,3,1] x[4,4,1] x[4,5,1] x[4,6,1] x[4,7,1]
 x[5,0,1] x[5,1,1] x[5,2,1] x[5,3,1] x[5,4,1] x[5,5,1] x[5,6,1] x[5,7,1]
 x[6,0,1] x[6,1,1] x[6,2,1] x[6,3,1] x[6,4,1] x[6,5,1] x[6,6,1] x[6,7,1]
 x[7,0,1] x[7,1,1] x[7,2,1] x[7,3,1] x[7,4,1] x[7,5,1] x[7,6,1] x[7,7,1]
End
